************************************************************************
file with basedata            : mm10_.bas
initial value random generator: 1185041993
************************************************************************
projects                      :  1
jobs (incl. supersource/sink ):  12
horizon                       :  81
RESOURCES
  - renewable                 :  2   R
  - nonrenewable              :  2   N
  - doubly constrained        :  0   D
************************************************************************
PROJECT INFORMATION:
pronr.  #jobs rel.date duedate tardcost  MPM-Time
    1     10      0       21        9       21
************************************************************************
PRECEDENCE RELATIONS:
jobnr.    #modes  #successors   successors
   0        1          3           1   2   3
   1        3          2           6  10
   2        3          1           4
   3        3          3           8   9  10
   4        3          1           5
   5        3          2           6  10
   6        3          2           7   8
   7        3          1           9
   8        3          1          11
   9        3          1          11
  10        3          1          11
  11        1          0        
************************************************************************
REQUESTS/DURATIONS:
jobnr. mode duration  R 1  R 2  R 3  R 4  E(W 1)  E(W 2)  E(W 3)
------------------------------------------------------------------------
  0      1     0       0    0    0    0     0       0       0
  1      1     1       0    6    8    0     6       8       0
  2      1     8       0    7    0    6    56       0      48
  3      1     8       0    4    0    6    32       0      48
  4      1     3       0    9    0    2    27       0       6
  5      1     1       6    0    2    0     6       2       0
  6      1     4       6    0    0    6    24       0      24
  7      1     1       0    5    2    0     5       2       0
  8      1     4       0    4    8    0    16      32       0
  9      1     4       8    0    7    0    32      28       0
 10      1     2       0    7    7    0    14      14       0
 11      1     0       0    0    0    0     0       0       0
************************************************************************
RESOURCEAVAILABILITIES:
  R 1  R 2  R 3
   24   24   33
************************************************************************
RESOURCE LIMITS:
jobnr.  l(R 1)  u(R 1)  l(R 2)  u(R 2)  l(R 3)  u(R 3)
------------------------------------------------------------------------
  0        0       0       0       0       0       0
  1        3       6       4       8       0       0
  2        4       7       0       0       3       6
  3        2       4       0       0       3       6
  4        5       9       0       0       1       2
  5        3       6       1       2       0       0
  6        3       6       0       0       3       6
  7        3       5       1       2       0       0
  8        2       4       4       8       0       0
  9        4       8       4       7       0       0
 10        4       7       4       7       0       0
 11        0       0       0       0       0       0
************************************************************************
SCENARIOS:
------------------------------------------------------------------------
RESOURCE k = 1
s = 1: (0, 5, 59, 27, 17, 5, 18, 5, 17, 29, 11, 0)
s = 2: (0, 4, 89, 40, 35, 9, 14, 3, 11, 30, 17, 0)
s = 3: (0, 7, 64, 41, 46, 6, 18, 6, 12, 41, 14, 0)
s = 4: (0, 6, 63, 26, 19, 7, 26, 6, 14, 31, 10, 0)
s = 5: (0, 6, 60, 34, 15, 7, 29, 4, 23, 41, 14, 0)
s = 6: (0, 4, 67, 28, 36, 4, 26, 4, 15, 26, 10, 0)
s = 7: (0, 6, 69, 48, 25, 4, 25, 6, 16, 33, 27, 0)
s = 8: (0, 7, 71, 37, 19, 5, 32, 7, 20, 21, 15, 0)
s = 9: (0, 6, 35, 23, 30, 6, 35, 6, 17, 30, 19, 0)
s = 10: (0, 4, 53, 19, 20, 7, 29, 4, 15, 47, 13, 0)
s = 11: (0, 8, 64, 52, 34, 7, 22, 6, 15, 21, 17, 0)
s = 12: (0, 9, 65, 19, 22, 6, 25, 8, 15, 27, 10, 0)
s = 13: (0, 6, 53, 42, 19, 8, 18, 4, 21, 29, 13, 0)
s = 14: (0, 5, 84, 31, 20, 4, 24, 5, 15, 24, 18, 0)
s = 15: (0, 5, 58, 36, 26, 5, 22, 4, 12, 21, 12, 0)
s = 16: (0, 9, 79, 35, 36, 7, 32, 6, 12, 29, 19, 0)
s = 17: (0, 8, 58, 45, 25, 7, 28, 6, 12, 25, 21, 0)
s = 18: (0, 8, 79, 30, 20, 5, 29, 5, 19, 28, 9, 0)
s = 19: (0, 7, 44, 46, 25, 7, 39, 7, 15, 35, 12, 0)
s = 20: (0, 6, 48, 35, 21, 5, 20, 5, 12, 21, 19, 0)
s = 21: (0, 5, 67, 36, 19, 9, 16, 3, 16, 18, 12, 0)
s = 22: (0, 6, 43, 29, 31, 4, 20, 5, 14, 43, 13, 0)
s = 23: (0, 6, 64, 24, 21, 6, 29, 6, 17, 31, 15, 0)
s = 24: (0, 5, 59, 21, 37, 8, 22, 3, 14, 25, 20, 0)
s = 25: (0, 5, 45, 41, 32, 6, 34, 7, 17, 25, 14, 0)
s = 26: (0, 5, 71, 36, 21, 8, 31, 6, 10, 43, 20, 0)
s = 27: (0, 6, 47, 37, 26, 7, 24, 6, 27, 20, 21, 0)
s = 28: (0, 5, 33, 20, 22, 8, 33, 6, 16, 28, 10, 0)
s = 29: (0, 5, 54, 45, 21, 4, 22, 6, 20, 40, 10, 0)
s = 30: (0, 6, 53, 40, 41, 6, 22, 8, 24, 24, 13, 0)
s = 31: (0, 7, 33, 25, 31, 5, 30, 6, 13, 27, 10, 0)
s = 32: (0, 6, 100, 35, 30, 7, 36, 4, 14, 27, 15, 0)
s = 33: (0, 8, 37, 45, 19, 7, 15, 7, 23, 22, 14, 0)
s = 34: (0, 5, 47, 42, 25, 6, 25, 4, 11, 33, 9, 0)
s = 35: (0, 8, 54, 31, 25, 6, 26, 8, 21, 32, 14, 0)
s = 36: (0, 4, 45, 29, 40, 10, 21, 7, 18, 40, 14, 0)
s = 37: (0, 5, 51, 29, 23, 5, 22, 4, 27, 43, 19, 0)
s = 38: (0, 7, 38, 30, 40, 4, 23, 5, 11, 50, 15, 0)
s = 39: (0, 6, 40, 32, 36, 9, 23, 6, 15, 31, 20, 0)
s = 40: (0, 8, 44, 40, 33, 8, 25, 5, 12, 28, 10, 0)
s = 41: (0, 7, 49, 28, 19, 9, 28, 5, 12, 37, 13, 0)
s = 42: (0, 5, 68, 25, 20, 9, 14, 4, 13, 25, 16, 0)
s = 43: (0, 6, 75, 32, 43, 6, 27, 5, 16, 45, 17, 0)
s = 44: (0, 9, 58, 21, 23, 8, 35, 7, 22, 29, 10, 0)
s = 45: (0, 6, 54, 27, 20, 8, 29, 5, 14, 35, 9, 0)
s = 46: (0, 5, 50, 36, 30, 8, 30, 8, 19, 20, 14, 0)
s = 47: (0, 10, 62, 26, 34, 4, 42, 4, 21, 35, 13, 0)
s = 48: (0, 4, 42, 32, 31, 4, 32, 6, 21, 40, 14, 0)
s = 49: (0, 10, 62, 36, 31, 9, 29, 6, 19, 30, 12, 0)
s = 50: (0, 6, 58, 32, 21, 6, 23, 9, 9, 20, 11, 0)
s = 51: (0, 8, 85, 22, 25, 11, 23, 4, 15, 25, 12, 0)
s = 52: (0, 5, 57, 32, 16, 7, 28, 6, 19, 24, 17, 0)
s = 53: (0, 4, 54, 35, 31, 7, 26, 7, 17, 37, 8, 0)
s = 54: (0, 9, 59, 39, 23, 4, 25, 5, 12, 19, 21, 0)
s = 55: (0, 7, 58, 45, 33, 6, 16, 6, 20, 29, 14, 0)
s = 56: (0, 7, 47, 33, 37, 8, 31, 6, 16, 25, 16, 0)
s = 57: (0, 8, 39, 17, 42, 4, 22, 4, 17, 24, 19, 0)
s = 58: (0, 6, 49, 42, 23, 9, 46, 5, 17, 28, 13, 0)
s = 59: (0, 4, 82, 43, 22, 7, 29, 8, 17, 35, 13, 0)
s = 60: (0, 8, 84, 53, 26, 10, 30, 5, 19, 28, 16, 0)
s = 61: (0, 7, 69, 37, 48, 5, 15, 5, 15, 28, 12, 0)
s = 62: (0, 7, 70, 30, 20, 6, 17, 5, 10, 30, 21, 0)
s = 63: (0, 6, 65, 30, 24, 7, 22, 5, 10, 25, 18, 0)
s = 64: (0, 6, 66, 30, 21, 7, 30, 5, 14, 34, 10, 0)
s = 65: (0, 9, 59, 31, 16, 8, 32, 5, 23, 25, 18, 0)
s = 66: (0, 9, 75, 42, 21, 5, 28, 6, 11, 22, 12, 0)
s = 67: (0, 6, 45, 39, 32, 6, 32, 6, 13, 30, 10, 0)
s = 68: (0, 5, 53, 32, 22, 5, 22, 7, 11, 27, 10, 0)
s = 69: (0, 5, 60, 24, 18, 4, 18, 6, 16, 31, 13, 0)
s = 70: (0, 5, 39, 34, 31, 5, 24, 5, 23, 23, 17, 0)
s = 71: (0, 7, 41, 35, 23, 4, 14, 4, 24, 40, 10, 0)
s = 72: (0, 8, 55, 39, 36, 6, 33, 7, 15, 41, 9, 0)
s = 73: (0, 9, 56, 19, 23, 10, 21, 7, 14, 22, 12, 0)
s = 74: (0, 7, 48, 29, 28, 5, 15, 4, 13, 23, 21, 0)
s = 75: (0, 7, 36, 30, 28, 4, 26, 4, 15, 29, 17, 0)
s = 76: (0, 6, 86, 44, 20, 8, 16, 5, 9, 23, 18, 0)
s = 77: (0, 4, 44, 41, 21, 5, 32, 5, 11, 29, 10, 0)
s = 78: (0, 5, 59, 40, 19, 8, 22, 6, 20, 29, 10, 0)
s = 79: (0, 5, 50, 41, 31, 5, 25, 5, 14, 32, 10, 0)
s = 80: (0, 6, 66, 24, 30, 5, 22, 8, 24, 30, 13, 0)
s = 81: (0, 6, 52, 37, 29, 5, 26, 4, 12, 41, 10, 0)
s = 82: (0, 6, 43, 29, 34, 10, 23, 4, 10, 58, 15, 0)
s = 83: (0, 10, 62, 29, 37, 5, 21, 8, 18, 39, 17, 0)
s = 84: (0, 4, 48, 17, 31, 7, 18, 8, 11, 35, 18, 0)
s = 85: (0, 8, 40, 29, 35, 6, 20, 4, 16, 42, 16, 0)
s = 86: (0, 8, 49, 21, 24, 5, 25, 4, 14, 24, 15, 0)
s = 87: (0, 9, 31, 24, 33, 8, 22, 7, 24, 43, 14, 0)
s = 88: (0, 8, 34, 25, 36, 7, 26, 5, 18, 39, 20, 0)
s = 89: (0, 7, 68, 29, 35, 6, 24, 6, 14, 41, 13, 0)
s = 90: (0, 4, 36, 18, 29, 7, 21, 5, 19, 22, 17, 0)
s = 91: (0, 7, 33, 47, 21, 9, 15, 4, 11, 29, 14, 0)
s = 92: (0, 8, 52, 19, 35, 6, 21, 7, 10, 20, 13, 0)
s = 93: (0, 6, 55, 33, 35, 12, 22, 4, 28, 22, 16, 0)
s = 94: (0, 6, 61, 30, 24, 7, 20, 5, 22, 44, 10, 0)
s = 95: (0, 5, 83, 23, 32, 6, 14, 4, 15, 33, 16, 0)
s = 96: (0, 8, 38, 40, 16, 6, 32, 3, 16, 30, 19, 0)
s = 97: (0, 7, 38, 25, 28, 7, 25, 4, 10, 29, 15, 0)
s = 98: (0, 6, 39, 38, 37, 5, 24, 6, 18, 27, 16, 0)
s = 99: (0, 4, 102, 30, 35, 4, 24, 5, 12, 53, 16, 0)
s = 100: (0, 9, 59, 29, 20, 5, 22, 6, 14, 27, 11, 0)
s = 101: (0, 6, 45, 20, 24, 7, 23, 8, 9, 36, 21, 0)
s = 102: (0, 10, 77, 26, 26, 6, 22, 4, 15, 35, 16, 0)
s = 103: (0, 7, 39, 46, 26, 9, 20, 4, 19, 35, 9, 0)
s = 104: (0, 5, 38, 19, 24, 6, 26, 5, 23, 25, 15, 0)
s = 105: (0, 8, 40, 33, 35, 8, 18, 6, 22, 23, 15, 0)
s = 106: (0, 5, 76, 36, 19, 6, 23, 5, 15, 23, 14, 0)
s = 107: (0, 8, 47, 24, 26, 6, 30, 6, 22, 40, 10, 0)
s = 108: (0, 7, 70, 32, 30, 8, 24, 4, 12, 34, 15, 0)
s = 109: (0, 5, 88, 28, 36, 11, 28, 6, 23, 24, 9, 0)
s = 110: (0, 4, 43, 24, 18, 6, 24, 8, 23, 35, 11, 0)
s = 111: (0, 8, 42, 34, 32, 7, 23, 5, 14, 28, 19, 0)
s = 112: (0, 5, 76, 26, 31, 7, 22, 4, 16, 43, 17, 0)
s = 113: (0, 8, 54, 44, 37, 6, 42, 8, 19, 40, 12, 0)
s = 114: (0, 5, 48, 34, 20, 5, 14, 7, 24, 26, 16, 0)
s = 115: (0, 6, 75, 25, 18, 9, 26, 5, 15, 43, 13, 0)
s = 116: (0, 10, 91, 43, 31, 6, 21, 7, 14, 52, 9, 0)
s = 117: (0, 5, 55, 36, 35, 7, 21, 8, 10, 22, 10, 0)
s = 118: (0, 7, 45, 37, 43, 5, 16, 8, 14, 21, 13, 0)
s = 119: (0, 6, 38, 39, 23, 8, 28, 5, 26, 23, 11, 0)
s = 120: (0, 7, 47, 34, 25, 9, 29, 7, 13, 45, 23, 0)
s = 121: (0, 9, 39, 25, 27, 9, 18, 8, 15, 32, 11, 0)
s = 122: (0, 5, 74, 27, 30, 8, 31, 4, 24, 25, 10, 0)
s = 123: (0, 8, 68, 34, 36, 8, 14, 5, 12, 28, 13, 0)
s = 124: (0, 6, 62, 20, 32, 7, 15, 5, 9, 36, 16, 0)
s = 125: (0, 5, 43, 28, 25, 5, 28, 7, 19, 22, 12, 0)
s = 126: (0, 6, 40, 30, 22, 6, 26, 4, 18, 28, 11, 0)
s = 127: (0, 7, 41, 29, 19, 5, 26, 4, 16, 25, 16, 0)
s = 128: (0, 8, 48, 34, 40, 5, 22, 7, 12, 23, 14, 0)
s = 129: (0, 6, 42, 33, 30, 9, 18, 5, 21, 34, 10, 0)
s = 130: (0, 7, 38, 32, 34, 4, 28, 6, 11, 35, 17, 0)
s = 131: (0, 6, 68, 48, 38, 6, 16, 3, 14, 35, 14, 0)
s = 132: (0, 4, 61, 46, 16, 9, 20, 5, 17, 36, 18, 0)
s = 133: (0, 8, 62, 45, 16, 6, 28, 5, 22, 57, 15, 0)
s = 134: (0, 5, 62, 34, 24, 8, 19, 6, 15, 43, 10, 0)
s = 135: (0, 5, 59, 29, 37, 5, 33, 4, 12, 19, 14, 0)
s = 136: (0, 5, 48, 24, 17, 5, 16, 5, 13, 29, 11, 0)
s = 137: (0, 5, 33, 21, 16, 4, 21, 8, 18, 28, 17, 0)
s = 138: (0, 6, 54, 24, 21, 8, 15, 6, 12, 30, 14, 0)
s = 139: (0, 7, 56, 36, 27, 6, 35, 4, 15, 26, 16, 0)
s = 140: (0, 5, 49, 32, 38, 8, 25, 6, 20, 32, 13, 0)
s = 141: (0, 9, 77, 52, 29, 9, 18, 8, 26, 31, 12, 0)
s = 142: (0, 6, 46, 45, 17, 4, 32, 7, 16, 52, 12, 0)
s = 143: (0, 7, 32, 51, 25, 6, 21, 4, 18, 17, 13, 0)
s = 144: (0, 6, 49, 20, 27, 5, 18, 6, 13, 28, 20, 0)
s = 145: (0, 5, 58, 39, 15, 6, 18, 7, 18, 23, 14, 0)
s = 146: (0, 6, 45, 30, 32, 7, 24, 3, 18, 30, 11, 0)
s = 147: (0, 6, 74, 24, 19, 9, 36, 6, 26, 40, 14, 0)
s = 148: (0, 8, 52, 28, 32, 5, 23, 3, 13, 23, 10, 0)
s = 149: (0, 9, 43, 32, 19, 8, 28, 7, 13, 37, 17, 0)
s = 150: (0, 7, 34, 34, 26, 6, 27, 7, 22, 38, 8, 0)
s = 151: (0, 6, 73, 18, 21, 5, 23, 8, 16, 22, 10, 0)
s = 152: (0, 6, 57, 17, 18, 10, 20, 5, 19, 36, 14, 0)
s = 153: (0, 5, 59, 30, 19, 7, 35, 5, 23, 35, 18, 0)
s = 154: (0, 10, 43, 35, 26, 8, 23, 4, 21, 36, 14, 0)
s = 155: (0, 9, 93, 33, 24, 11, 17, 4, 16, 39, 25, 0)
s = 156: (0, 8, 52, 32, 26, 4, 22, 6, 14, 28, 9, 0)
s = 157: (0, 10, 56, 35, 27, 6, 25, 4, 11, 29, 17, 0)
s = 158: (0, 10, 46, 19, 24, 8, 27, 4, 9, 42, 11, 0)
s = 159: (0, 7, 45, 45, 35, 5, 20, 5, 23, 31, 11, 0)
s = 160: (0, 6, 42, 34, 17, 7, 30, 4, 30, 24, 14, 0)
s = 161: (0, 6, 84, 27, 28, 8, 23, 6, 32, 42, 14, 0)
s = 162: (0, 6, 91, 42, 23, 5, 18, 5, 11, 21, 10, 0)
s = 163: (0, 8, 89, 21, 40, 7, 25, 6, 11, 32, 15, 0)
s = 164: (0, 7, 55, 32, 25, 10, 19, 4, 14, 35, 10, 0)
s = 165: (0, 5, 57, 26, 17, 6, 18, 5, 17, 36, 20, 0)
s = 166: (0, 8, 46, 36, 24, 8, 24, 5, 17, 44, 17, 0)
s = 167: (0, 7, 33, 34, 18, 6, 33, 8, 13, 25, 12, 0)
s = 168: (0, 7, 83, 43, 18, 4, 44, 7, 13, 29, 22, 0)
s = 169: (0, 9, 66, 38, 39, 5, 23, 7, 20, 27, 10, 0)
s = 170: (0, 6, 57, 31, 26, 7, 23, 4, 28, 22, 15, 0)
s = 171: (0, 7, 55, 22, 34, 9, 21, 5, 17, 31, 10, 0)
s = 172: (0, 4, 33, 21, 22, 7, 19, 7, 16, 50, 9, 0)
s = 173: (0, 4, 45, 24, 40, 7, 20, 4, 11, 18, 16, 0)
s = 174: (0, 6, 75, 41, 21, 9, 23, 5, 13, 33, 15, 0)
s = 175: (0, 8, 54, 30, 15, 6, 25, 5, 18, 23, 12, 0)
s = 176: (0, 5, 69, 39, 15, 5, 17, 9, 11, 27, 15, 0)
s = 177: (0, 7, 37, 49, 28, 5, 29, 5, 23, 29, 10, 0)
s = 178: (0, 9, 42, 32, 29, 6, 33, 7, 18, 32, 17, 0)
s = 179: (0, 6, 61, 41, 36, 7, 17, 7, 19, 30, 11, 0)
s = 180: (0, 6, 38, 24, 18, 5, 16, 6, 16, 23, 19, 0)
s = 181: (0, 6, 44, 57, 30, 8, 15, 6, 13, 38, 11, 0)
s = 182: (0, 7, 73, 25, 27, 9, 18, 8, 16, 38, 22, 0)
s = 183: (0, 7, 43, 43, 26, 7, 34, 3, 13, 47, 12, 0)
s = 184: (0, 5, 55, 39, 28, 5, 18, 5, 12, 21, 20, 0)
s = 185: (0, 7, 53, 50, 42, 5, 26, 4, 15, 30, 20, 0)
s = 186: (0, 7, 53, 23, 51, 6, 20, 4, 18, 33, 16, 0)
s = 187: (0, 6, 45, 24, 36, 7, 22, 6, 12, 22, 24, 0)
s = 188: (0, 7, 38, 29, 25, 8, 45, 5, 21, 46, 16, 0)
s = 189: (0, 4, 35, 39, 18, 6, 20, 5, 18, 25, 22, 0)
s = 190: (0, 6, 73, 50, 18, 8, 20, 7, 15, 37, 16, 0)
s = 191: (0, 9, 35, 26, 20, 6, 31, 4, 12, 36, 15, 0)
s = 192: (0, 5, 60, 42, 33, 5, 22, 7, 13, 23, 13, 0)
s = 193: (0, 7, 39, 26, 36, 10, 23, 7, 13, 22, 15, 0)
s = 194: (0, 4, 66, 33, 35, 5, 30, 6, 13, 33, 13, 0)
s = 195: (0, 8, 69, 30, 20, 5, 25, 4, 18, 28, 16, 0)
s = 196: (0, 4, 77, 41, 27, 5, 23, 6, 23, 34, 20, 0)
s = 197: (0, 8, 37, 39, 28, 5, 30, 6, 17, 30, 19, 0)
s = 198: (0, 8, 71, 42, 27, 5, 27, 4, 17, 49, 16, 0)
s = 199: (0, 7, 72, 26, 29, 11, 24, 7, 16, 40, 12, 0)
s = 200: (0, 7, 54, 47, 39, 5, 18, 4, 13, 34, 17, 0)
------------------------------------------------------------------------
RESOURCE k = 2
s = 1: (0, 6, 0, 0, 0, 2, 0, 2, 33, 25, 11, 0)
s = 2: (0, 6, 0, 0, 0, 3, 0, 2, 22, 27, 17, 0)
s = 3: (0, 10, 0, 0, 0, 2, 0, 3, 24, 36, 14, 0)
s = 4: (0, 8, 0, 0, 0, 3, 0, 3, 28, 27, 10, 0)
s = 5: (0, 7, 0, 0, 0, 3, 0, 2, 45, 36, 14, 0)
s = 6: (0, 5, 0, 0, 0, 2, 0, 2, 30, 23, 10, 0)
s = 7: (0, 7, 0, 0, 0, 2, 0, 3, 32, 29, 27, 0)
s = 8: (0, 9, 0, 0, 0, 2, 0, 3, 39, 18, 15, 0)
s = 9: (0, 8, 0, 0, 0, 2, 0, 3, 33, 26, 19, 0)
s = 10: (0, 6, 0, 0, 0, 3, 0, 2, 29, 41, 13, 0)
s = 11: (0, 10, 0, 0, 0, 3, 0, 3, 29, 19, 17, 0)
s = 12: (0, 12, 0, 0, 0, 2, 0, 4, 29, 24, 10, 0)
s = 13: (0, 7, 0, 0, 0, 3, 0, 2, 41, 25, 13, 0)
s = 14: (0, 7, 0, 0, 0, 2, 0, 2, 29, 21, 18, 0)
s = 15: (0, 7, 0, 0, 0, 2, 0, 2, 23, 18, 12, 0)
s = 16: (0, 11, 0, 0, 0, 3, 0, 3, 24, 25, 19, 0)
s = 17: (0, 10, 0, 0, 0, 3, 0, 3, 24, 22, 21, 0)
s = 18: (0, 10, 0, 0, 0, 2, 0, 2, 37, 25, 9, 0)
s = 19: (0, 9, 0, 0, 0, 3, 0, 3, 30, 31, 12, 0)
s = 20: (0, 8, 0, 0, 0, 2, 0, 2, 23, 18, 19, 0)
s = 21: (0, 6, 0, 0, 0, 3, 0, 2, 32, 16, 12, 0)
s = 22: (0, 7, 0, 0, 0, 2, 0, 2, 28, 38, 13, 0)
s = 23: (0, 7, 0, 0, 0, 2, 0, 3, 34, 27, 15, 0)
s = 24: (0, 6, 0, 0, 0, 3, 0, 2, 28, 22, 20, 0)
s = 25: (0, 6, 0, 0, 0, 2, 0, 3, 33, 22, 14, 0)
s = 26: (0, 6, 0, 0, 0, 3, 0, 3, 19, 38, 20, 0)
s = 27: (0, 8, 0, 0, 0, 3, 0, 3, 54, 18, 21, 0)
s = 28: (0, 7, 0, 0, 0, 3, 0, 3, 31, 24, 10, 0)
s = 29: (0, 7, 0, 0, 0, 2, 0, 3, 40, 35, 10, 0)
s = 30: (0, 7, 0, 0, 0, 2, 0, 3, 47, 21, 13, 0)
s = 31: (0, 9, 0, 0, 0, 2, 0, 3, 25, 24, 10, 0)
s = 32: (0, 8, 0, 0, 0, 3, 0, 2, 28, 24, 15, 0)
s = 33: (0, 10, 0, 0, 0, 3, 0, 3, 45, 20, 14, 0)
s = 34: (0, 7, 0, 0, 0, 2, 0, 2, 22, 29, 9, 0)
s = 35: (0, 10, 0, 0, 0, 2, 0, 4, 42, 28, 14, 0)
s = 36: (0, 5, 0, 0, 0, 4, 0, 3, 35, 35, 14, 0)
s = 37: (0, 7, 0, 0, 0, 2, 0, 2, 53, 38, 19, 0)
s = 38: (0, 9, 0, 0, 0, 2, 0, 2, 21, 44, 15, 0)
s = 39: (0, 8, 0, 0, 0, 3, 0, 3, 30, 27, 20, 0)
s = 40: (0, 10, 0, 0, 0, 3, 0, 2, 24, 24, 10, 0)
s = 41: (0, 9, 0, 0, 0, 3, 0, 2, 23, 32, 13, 0)
s = 42: (0, 6, 0, 0, 0, 3, 0, 2, 25, 22, 16, 0)
s = 43: (0, 8, 0, 0, 0, 2, 0, 2, 32, 39, 17, 0)
s = 44: (0, 12, 0, 0, 0, 3, 0, 3, 43, 26, 10, 0)
s = 45: (0, 8, 0, 0, 0, 3, 0, 2, 28, 31, 9, 0)
s = 46: (0, 7, 0, 0, 0, 3, 0, 3, 37, 17, 14, 0)
s = 47: (0, 13, 0, 0, 0, 2, 0, 2, 42, 30, 13, 0)
s = 48: (0, 5, 0, 0, 0, 2, 0, 3, 41, 35, 14, 0)
s = 49: (0, 13, 0, 0, 0, 3, 0, 3, 37, 27, 12, 0)
s = 50: (0, 8, 0, 0, 0, 2, 0, 4, 18, 17, 11, 0)
s = 51: (0, 11, 0, 0, 0, 4, 0, 2, 29, 22, 12, 0)
s = 52: (0, 6, 0, 0, 0, 3, 0, 3, 38, 21, 17, 0)
s = 53: (0, 5, 0, 0, 0, 3, 0, 3, 34, 32, 8, 0)
s = 54: (0, 12, 0, 0, 0, 2, 0, 2, 23, 17, 21, 0)
s = 55: (0, 10, 0, 0, 0, 2, 0, 3, 39, 26, 14, 0)
s = 56: (0, 10, 0, 0, 0, 3, 0, 3, 31, 22, 16, 0)
s = 57: (0, 10, 0, 0, 0, 2, 0, 2, 33, 21, 19, 0)
s = 58: (0, 8, 0, 0, 0, 3, 0, 2, 34, 25, 13, 0)
s = 59: (0, 6, 0, 0, 0, 3, 0, 3, 34, 31, 13, 0)
s = 60: (0, 10, 0, 0, 0, 4, 0, 2, 37, 25, 16, 0)
s = 61: (0, 9, 0, 0, 0, 2, 0, 2, 30, 24, 12, 0)
s = 62: (0, 10, 0, 0, 0, 2, 0, 2, 20, 27, 21, 0)
s = 63: (0, 8, 0, 0, 0, 3, 0, 2, 20, 22, 18, 0)
s = 64: (0, 7, 0, 0, 0, 3, 0, 2, 28, 30, 10, 0)
s = 65: (0, 11, 0, 0, 0, 3, 0, 2, 45, 22, 18, 0)
s = 66: (0, 12, 0, 0, 0, 2, 0, 3, 22, 20, 12, 0)
s = 67: (0, 8, 0, 0, 0, 2, 0, 3, 26, 26, 10, 0)
s = 68: (0, 6, 0, 0, 0, 2, 0, 3, 22, 23, 10, 0)
s = 69: (0, 7, 0, 0, 0, 2, 0, 3, 31, 27, 13, 0)
s = 70: (0, 7, 0, 0, 0, 2, 0, 2, 46, 20, 17, 0)
s = 71: (0, 9, 0, 0, 0, 2, 0, 2, 48, 35, 10, 0)
s = 72: (0, 10, 0, 0, 0, 2, 0, 3, 29, 36, 9, 0)
s = 73: (0, 12, 0, 0, 0, 4, 0, 3, 28, 19, 12, 0)
s = 74: (0, 10, 0, 0, 0, 2, 0, 2, 26, 20, 21, 0)
s = 75: (0, 9, 0, 0, 0, 2, 0, 2, 30, 25, 17, 0)
s = 76: (0, 8, 0, 0, 0, 3, 0, 2, 18, 20, 18, 0)
s = 77: (0, 5, 0, 0, 0, 2, 0, 2, 22, 26, 10, 0)
s = 78: (0, 7, 0, 0, 0, 3, 0, 3, 39, 25, 10, 0)
s = 79: (0, 6, 0, 0, 0, 2, 0, 2, 28, 28, 10, 0)
s = 80: (0, 8, 0, 0, 0, 2, 0, 3, 48, 26, 13, 0)
s = 81: (0, 7, 0, 0, 0, 2, 0, 2, 24, 36, 10, 0)
s = 82: (0, 8, 0, 0, 0, 4, 0, 2, 20, 51, 15, 0)
s = 83: (0, 13, 0, 0, 0, 2, 0, 3, 36, 35, 17, 0)
s = 84: (0, 5, 0, 0, 0, 3, 0, 4, 22, 30, 18, 0)
s = 85: (0, 10, 0, 0, 0, 2, 0, 2, 32, 37, 16, 0)
s = 86: (0, 10, 0, 0, 0, 2, 0, 2, 27, 21, 15, 0)
s = 87: (0, 12, 0, 0, 0, 3, 0, 3, 47, 38, 14, 0)
s = 88: (0, 10, 0, 0, 0, 3, 0, 2, 36, 34, 20, 0)
s = 89: (0, 9, 0, 0, 0, 2, 0, 3, 27, 36, 13, 0)
s = 90: (0, 5, 0, 0, 0, 3, 0, 2, 38, 19, 17, 0)
s = 91: (0, 9, 0, 0, 0, 3, 0, 2, 21, 26, 14, 0)
s = 92: (0, 10, 0, 0, 0, 2, 0, 3, 19, 18, 13, 0)
s = 93: (0, 8, 0, 0, 0, 4, 0, 2, 56, 19, 16, 0)
s = 94: (0, 8, 0, 0, 0, 3, 0, 2, 43, 39, 10, 0)
s = 95: (0, 6, 0, 0, 0, 2, 0, 2, 30, 29, 16, 0)
s = 96: (0, 10, 0, 0, 0, 2, 0, 2, 31, 26, 19, 0)
s = 97: (0, 9, 0, 0, 0, 3, 0, 2, 19, 26, 15, 0)
s = 98: (0, 7, 0, 0, 0, 2, 0, 3, 36, 24, 16, 0)
s = 99: (0, 6, 0, 0, 0, 2, 0, 2, 24, 47, 16, 0)
s = 100: (0, 12, 0, 0, 0, 2, 0, 3, 28, 24, 11, 0)
s = 101: (0, 8, 0, 0, 0, 3, 0, 4, 18, 31, 21, 0)
s = 102: (0, 13, 0, 0, 0, 2, 0, 2, 30, 31, 16, 0)
s = 103: (0, 9, 0, 0, 0, 3, 0, 2, 38, 30, 9, 0)
s = 104: (0, 7, 0, 0, 0, 2, 0, 2, 46, 22, 15, 0)
s = 105: (0, 10, 0, 0, 0, 3, 0, 3, 43, 20, 15, 0)
s = 106: (0, 7, 0, 0, 0, 2, 0, 2, 29, 20, 14, 0)
s = 107: (0, 10, 0, 0, 0, 2, 0, 3, 44, 35, 10, 0)
s = 108: (0, 10, 0, 0, 0, 3, 0, 2, 24, 30, 15, 0)
s = 109: (0, 6, 0, 0, 0, 4, 0, 3, 46, 21, 9, 0)
s = 110: (0, 6, 0, 0, 0, 2, 0, 3, 45, 31, 11, 0)
s = 111: (0, 10, 0, 0, 0, 3, 0, 2, 27, 25, 19, 0)
s = 112: (0, 6, 0, 0, 0, 3, 0, 2, 32, 38, 17, 0)
s = 113: (0, 11, 0, 0, 0, 2, 0, 4, 38, 35, 12, 0)
s = 114: (0, 6, 0, 0, 0, 2, 0, 3, 48, 23, 16, 0)
s = 115: (0, 8, 0, 0, 0, 3, 0, 2, 30, 38, 13, 0)
s = 116: (0, 13, 0, 0, 0, 2, 0, 3, 28, 45, 9, 0)
s = 117: (0, 6, 0, 0, 0, 3, 0, 4, 20, 20, 10, 0)
s = 118: (0, 9, 0, 0, 0, 2, 0, 3, 28, 18, 13, 0)
s = 119: (0, 8, 0, 0, 0, 3, 0, 2, 52, 20, 11, 0)
s = 120: (0, 9, 0, 0, 0, 3, 0, 3, 25, 39, 23, 0)
s = 121: (0, 11, 0, 0, 0, 3, 0, 3, 29, 28, 11, 0)
s = 122: (0, 7, 0, 0, 0, 3, 0, 2, 47, 22, 10, 0)
s = 123: (0, 10, 0, 0, 0, 3, 0, 2, 23, 25, 13, 0)
s = 124: (0, 8, 0, 0, 0, 3, 0, 2, 18, 32, 16, 0)
s = 125: (0, 7, 0, 0, 0, 2, 0, 3, 38, 20, 12, 0)
s = 126: (0, 7, 0, 0, 0, 2, 0, 2, 36, 24, 11, 0)
s = 127: (0, 10, 0, 0, 0, 2, 0, 2, 32, 22, 16, 0)
s = 128: (0, 11, 0, 0, 0, 2, 0, 3, 24, 21, 14, 0)
s = 129: (0, 7, 0, 0, 0, 3, 0, 2, 42, 29, 10, 0)
s = 130: (0, 9, 0, 0, 0, 2, 0, 3, 22, 30, 17, 0)
s = 131: (0, 8, 0, 0, 0, 2, 0, 2, 28, 31, 14, 0)
s = 132: (0, 5, 0, 0, 0, 3, 0, 2, 33, 32, 18, 0)
s = 133: (0, 11, 0, 0, 0, 2, 0, 2, 43, 50, 15, 0)
s = 134: (0, 6, 0, 0, 0, 3, 0, 3, 30, 37, 10, 0)
s = 135: (0, 7, 0, 0, 0, 2, 0, 2, 23, 17, 14, 0)
s = 136: (0, 6, 0, 0, 0, 2, 0, 2, 26, 26, 11, 0)
s = 137: (0, 6, 0, 0, 0, 2, 0, 3, 36, 25, 17, 0)
s = 138: (0, 8, 0, 0, 0, 3, 0, 3, 23, 26, 14, 0)
s = 139: (0, 9, 0, 0, 0, 2, 0, 2, 29, 22, 16, 0)
s = 140: (0, 7, 0, 0, 0, 3, 0, 3, 40, 28, 13, 0)
s = 141: (0, 12, 0, 0, 0, 3, 0, 3, 51, 27, 12, 0)
s = 142: (0, 8, 0, 0, 0, 2, 0, 3, 32, 45, 12, 0)
s = 143: (0, 9, 0, 0, 0, 2, 0, 2, 36, 15, 13, 0)
s = 144: (0, 8, 0, 0, 0, 2, 0, 3, 26, 25, 20, 0)
s = 145: (0, 7, 0, 0, 0, 2, 0, 3, 35, 20, 14, 0)
s = 146: (0, 8, 0, 0, 0, 3, 0, 2, 36, 26, 11, 0)
s = 147: (0, 8, 0, 0, 0, 3, 0, 3, 52, 35, 14, 0)
s = 148: (0, 10, 0, 0, 0, 2, 0, 2, 25, 20, 10, 0)
s = 149: (0, 12, 0, 0, 0, 3, 0, 3, 25, 32, 17, 0)
s = 150: (0, 9, 0, 0, 0, 2, 0, 3, 43, 33, 8, 0)
s = 151: (0, 8, 0, 0, 0, 2, 0, 3, 32, 20, 10, 0)
s = 152: (0, 7, 0, 0, 0, 4, 0, 2, 37, 31, 14, 0)
s = 153: (0, 6, 0, 0, 0, 3, 0, 2, 45, 31, 18, 0)
s = 154: (0, 14, 0, 0, 0, 3, 0, 2, 41, 31, 14, 0)
s = 155: (0, 11, 0, 0, 0, 4, 0, 2, 32, 34, 25, 0)
s = 156: (0, 11, 0, 0, 0, 2, 0, 3, 28, 24, 9, 0)
s = 157: (0, 13, 0, 0, 0, 2, 0, 2, 22, 26, 17, 0)
s = 158: (0, 13, 0, 0, 0, 3, 0, 2, 17, 37, 11, 0)
s = 159: (0, 10, 0, 0, 0, 2, 0, 2, 45, 27, 11, 0)
s = 160: (0, 8, 0, 0, 0, 3, 0, 2, 59, 21, 14, 0)
s = 161: (0, 8, 0, 0, 0, 3, 0, 3, 64, 37, 14, 0)
s = 162: (0, 8, 0, 0, 0, 2, 0, 2, 22, 18, 10, 0)
s = 163: (0, 11, 0, 0, 0, 3, 0, 3, 22, 28, 15, 0)
s = 164: (0, 9, 0, 0, 0, 4, 0, 2, 27, 31, 10, 0)
s = 165: (0, 6, 0, 0, 0, 2, 0, 2, 34, 32, 20, 0)
s = 166: (0, 11, 0, 0, 0, 3, 0, 2, 34, 39, 17, 0)
s = 167: (0, 9, 0, 0, 0, 2, 0, 4, 26, 22, 12, 0)
s = 168: (0, 9, 0, 0, 0, 2, 0, 3, 25, 25, 22, 0)
s = 169: (0, 12, 0, 0, 0, 2, 0, 3, 40, 24, 10, 0)
s = 170: (0, 7, 0, 0, 0, 3, 0, 2, 55, 19, 15, 0)
s = 171: (0, 10, 0, 0, 0, 3, 0, 2, 34, 27, 10, 0)
s = 172: (0, 6, 0, 0, 0, 3, 0, 3, 31, 43, 9, 0)
s = 173: (0, 5, 0, 0, 0, 3, 0, 2, 21, 15, 16, 0)
s = 174: (0, 8, 0, 0, 0, 3, 0, 2, 26, 29, 15, 0)
s = 175: (0, 11, 0, 0, 0, 2, 0, 2, 36, 20, 12, 0)
s = 176: (0, 7, 0, 0, 0, 2, 0, 4, 22, 23, 15, 0)
s = 177: (0, 9, 0, 0, 0, 2, 0, 2, 45, 25, 10, 0)
s = 178: (0, 12, 0, 0, 0, 2, 0, 3, 35, 28, 17, 0)
s = 179: (0, 7, 0, 0, 0, 3, 0, 3, 37, 26, 11, 0)
s = 180: (0, 8, 0, 0, 0, 2, 0, 3, 32, 21, 19, 0)
s = 181: (0, 7, 0, 0, 0, 3, 0, 3, 26, 33, 11, 0)
s = 182: (0, 9, 0, 0, 0, 3, 0, 4, 31, 33, 22, 0)
s = 183: (0, 9, 0, 0, 0, 3, 0, 2, 26, 42, 12, 0)
s = 184: (0, 6, 0, 0, 0, 2, 0, 2, 23, 18, 20, 0)
s = 185: (0, 9, 0, 0, 0, 2, 0, 2, 29, 26, 20, 0)
s = 186: (0, 9, 0, 0, 0, 2, 0, 2, 35, 29, 16, 0)
s = 187: (0, 7, 0, 0, 0, 3, 0, 3, 24, 19, 24, 0)
s = 188: (0, 9, 0, 0, 0, 3, 0, 2, 42, 40, 16, 0)
s = 189: (0, 6, 0, 0, 0, 2, 0, 2, 36, 22, 22, 0)
s = 190: (0, 7, 0, 0, 0, 3, 0, 3, 29, 33, 16, 0)
s = 191: (0, 12, 0, 0, 0, 2, 0, 2, 23, 31, 15, 0)
s = 192: (0, 7, 0, 0, 0, 2, 0, 3, 26, 20, 13, 0)
s = 193: (0, 9, 0, 0, 0, 4, 0, 3, 25, 19, 15, 0)
s = 194: (0, 6, 0, 0, 0, 2, 0, 3, 25, 29, 13, 0)
s = 195: (0, 11, 0, 0, 0, 2, 0, 2, 36, 25, 16, 0)
s = 196: (0, 6, 0, 0, 0, 2, 0, 3, 46, 30, 20, 0)
s = 197: (0, 10, 0, 0, 0, 2, 0, 3, 34, 26, 19, 0)
s = 198: (0, 10, 0, 0, 0, 2, 0, 2, 33, 43, 16, 0)
s = 199: (0, 10, 0, 0, 0, 4, 0, 3, 31, 35, 12, 0)
s = 200: (0, 9, 0, 0, 0, 2, 0, 2, 26, 30, 17, 0)
------------------------------------------------------------------------
RESOURCE k = 3
s = 1: (0, 0, 51, 40, 4, 0, 18, 0, 0, 0, 0, 0)
s = 2: (0, 0, 76, 59, 8, 0, 14, 0, 0, 0, 0, 0)
s = 3: (0, 0, 55, 61, 11, 0, 18, 0, 0, 0, 0, 0)
s = 4: (0, 0, 54, 38, 5, 0, 26, 0, 0, 0, 0, 0)
s = 5: (0, 0, 52, 51, 4, 0, 29, 0, 0, 0, 0, 0)
s = 6: (0, 0, 57, 42, 8, 0, 26, 0, 0, 0, 0, 0)
s = 7: (0, 0, 59, 72, 6, 0, 25, 0, 0, 0, 0, 0)
s = 8: (0, 0, 61, 55, 5, 0, 32, 0, 0, 0, 0, 0)
s = 9: (0, 0, 30, 34, 7, 0, 35, 0, 0, 0, 0, 0)
s = 10: (0, 0, 45, 28, 5, 0, 29, 0, 0, 0, 0, 0)
s = 11: (0, 0, 55, 77, 8, 0, 22, 0, 0, 0, 0, 0)
s = 12: (0, 0, 56, 29, 5, 0, 25, 0, 0, 0, 0, 0)
s = 13: (0, 0, 46, 63, 5, 0, 18, 0, 0, 0, 0, 0)
s = 14: (0, 0, 72, 46, 5, 0, 24, 0, 0, 0, 0, 0)
s = 15: (0, 0, 50, 54, 6, 0, 22, 0, 0, 0, 0, 0)
s = 16: (0, 0, 68, 52, 8, 0, 32, 0, 0, 0, 0, 0)
s = 17: (0, 0, 50, 68, 6, 0, 28, 0, 0, 0, 0, 0)
s = 18: (0, 0, 68, 44, 5, 0, 29, 0, 0, 0, 0, 0)
s = 19: (0, 0, 38, 69, 6, 0, 39, 0, 0, 0, 0, 0)
s = 20: (0, 0, 41, 53, 5, 0, 20, 0, 0, 0, 0, 0)
s = 21: (0, 0, 58, 54, 5, 0, 16, 0, 0, 0, 0, 0)
s = 22: (0, 0, 37, 44, 7, 0, 20, 0, 0, 0, 0, 0)
s = 23: (0, 0, 55, 36, 5, 0, 29, 0, 0, 0, 0, 0)
s = 24: (0, 0, 50, 32, 9, 0, 22, 0, 0, 0, 0, 0)
s = 25: (0, 0, 39, 61, 7, 0, 34, 0, 0, 0, 0, 0)
s = 26: (0, 0, 61, 53, 5, 0, 31, 0, 0, 0, 0, 0)
s = 27: (0, 0, 40, 55, 6, 0, 24, 0, 0, 0, 0, 0)
s = 28: (0, 0, 29, 30, 5, 0, 33, 0, 0, 0, 0, 0)
s = 29: (0, 0, 46, 67, 5, 0, 22, 0, 0, 0, 0, 0)
s = 30: (0, 0, 46, 59, 10, 0, 22, 0, 0, 0, 0, 0)
s = 31: (0, 0, 29, 38, 7, 0, 30, 0, 0, 0, 0, 0)
s = 32: (0, 0, 86, 52, 7, 0, 36, 0, 0, 0, 0, 0)
s = 33: (0, 0, 32, 67, 5, 0, 15, 0, 0, 0, 0, 0)
s = 34: (0, 0, 41, 62, 6, 0, 25, 0, 0, 0, 0, 0)
s = 35: (0, 0, 46, 46, 6, 0, 26, 0, 0, 0, 0, 0)
s = 36: (0, 0, 38, 43, 9, 0, 21, 0, 0, 0, 0, 0)
s = 37: (0, 0, 44, 44, 5, 0, 22, 0, 0, 0, 0, 0)
s = 38: (0, 0, 33, 45, 9, 0, 23, 0, 0, 0, 0, 0)
s = 39: (0, 0, 35, 48, 8, 0, 23, 0, 0, 0, 0, 0)
s = 40: (0, 0, 38, 60, 8, 0, 25, 0, 0, 0, 0, 0)
s = 41: (0, 0, 42, 41, 5, 0, 28, 0, 0, 0, 0, 0)
s = 42: (0, 0, 58, 38, 5, 0, 14, 0, 0, 0, 0, 0)
s = 43: (0, 0, 64, 47, 10, 0, 27, 0, 0, 0, 0, 0)
s = 44: (0, 0, 50, 31, 6, 0, 35, 0, 0, 0, 0, 0)
s = 45: (0, 0, 46, 40, 5, 0, 29, 0, 0, 0, 0, 0)
s = 46: (0, 0, 43, 54, 7, 0, 30, 0, 0, 0, 0, 0)
s = 47: (0, 0, 54, 38, 8, 0, 42, 0, 0, 0, 0, 0)
s = 48: (0, 0, 36, 47, 7, 0, 32, 0, 0, 0, 0, 0)
s = 49: (0, 0, 53, 53, 7, 0, 29, 0, 0, 0, 0, 0)
s = 50: (0, 0, 50, 48, 5, 0, 23, 0, 0, 0, 0, 0)
s = 51: (0, 0, 73, 33, 6, 0, 23, 0, 0, 0, 0, 0)
s = 52: (0, 0, 49, 48, 4, 0, 28, 0, 0, 0, 0, 0)
s = 53: (0, 0, 47, 52, 7, 0, 26, 0, 0, 0, 0, 0)
s = 54: (0, 0, 51, 59, 6, 0, 25, 0, 0, 0, 0, 0)
s = 55: (0, 0, 50, 67, 8, 0, 16, 0, 0, 0, 0, 0)
s = 56: (0, 0, 41, 49, 9, 0, 31, 0, 0, 0, 0, 0)
s = 57: (0, 0, 33, 26, 10, 0, 22, 0, 0, 0, 0, 0)
s = 58: (0, 0, 42, 63, 6, 0, 46, 0, 0, 0, 0, 0)
s = 59: (0, 0, 70, 64, 5, 0, 29, 0, 0, 0, 0, 0)
s = 60: (0, 0, 72, 80, 6, 0, 30, 0, 0, 0, 0, 0)
s = 61: (0, 0, 60, 55, 11, 0, 15, 0, 0, 0, 0, 0)
s = 62: (0, 0, 60, 45, 5, 0, 17, 0, 0, 0, 0, 0)
s = 63: (0, 0, 55, 44, 6, 0, 22, 0, 0, 0, 0, 0)
s = 64: (0, 0, 57, 45, 5, 0, 30, 0, 0, 0, 0, 0)
s = 65: (0, 0, 51, 47, 4, 0, 32, 0, 0, 0, 0, 0)
s = 66: (0, 0, 64, 62, 5, 0, 28, 0, 0, 0, 0, 0)
s = 67: (0, 0, 39, 58, 8, 0, 32, 0, 0, 0, 0, 0)
s = 68: (0, 0, 45, 48, 5, 0, 22, 0, 0, 0, 0, 0)
s = 69: (0, 0, 51, 35, 4, 0, 18, 0, 0, 0, 0, 0)
s = 70: (0, 0, 33, 51, 7, 0, 24, 0, 0, 0, 0, 0)
s = 71: (0, 0, 35, 52, 5, 0, 14, 0, 0, 0, 0, 0)
s = 72: (0, 0, 47, 58, 8, 0, 33, 0, 0, 0, 0, 0)
s = 73: (0, 0, 48, 29, 5, 0, 21, 0, 0, 0, 0, 0)
s = 74: (0, 0, 41, 43, 7, 0, 15, 0, 0, 0, 0, 0)
s = 75: (0, 0, 31, 45, 7, 0, 26, 0, 0, 0, 0, 0)
s = 76: (0, 0, 74, 65, 5, 0, 16, 0, 0, 0, 0, 0)
s = 77: (0, 0, 38, 62, 5, 0, 32, 0, 0, 0, 0, 0)
s = 78: (0, 0, 51, 60, 5, 0, 22, 0, 0, 0, 0, 0)
s = 79: (0, 0, 43, 61, 7, 0, 25, 0, 0, 0, 0, 0)
s = 80: (0, 0, 57, 35, 7, 0, 22, 0, 0, 0, 0, 0)
s = 81: (0, 0, 45, 55, 7, 0, 26, 0, 0, 0, 0, 0)
s = 82: (0, 0, 37, 44, 8, 0, 23, 0, 0, 0, 0, 0)
s = 83: (0, 0, 53, 43, 9, 0, 21, 0, 0, 0, 0, 0)
s = 84: (0, 0, 41, 26, 7, 0, 18, 0, 0, 0, 0, 0)
s = 85: (0, 0, 34, 44, 8, 0, 20, 0, 0, 0, 0, 0)
s = 86: (0, 0, 42, 32, 6, 0, 25, 0, 0, 0, 0, 0)
s = 87: (0, 0, 27, 36, 8, 0, 22, 0, 0, 0, 0, 0)
s = 88: (0, 0, 29, 38, 8, 0, 26, 0, 0, 0, 0, 0)
s = 89: (0, 0, 59, 44, 8, 0, 24, 0, 0, 0, 0, 0)
s = 90: (0, 0, 31, 26, 7, 0, 21, 0, 0, 0, 0, 0)
s = 91: (0, 0, 28, 70, 5, 0, 15, 0, 0, 0, 0, 0)
s = 92: (0, 0, 44, 28, 8, 0, 21, 0, 0, 0, 0, 0)
s = 93: (0, 0, 47, 50, 8, 0, 22, 0, 0, 0, 0, 0)
s = 94: (0, 0, 53, 45, 6, 0, 20, 0, 0, 0, 0, 0)
s = 95: (0, 0, 72, 35, 7, 0, 14, 0, 0, 0, 0, 0)
s = 96: (0, 0, 33, 60, 4, 0, 32, 0, 0, 0, 0, 0)
s = 97: (0, 0, 33, 38, 7, 0, 25, 0, 0, 0, 0, 0)
s = 98: (0, 0, 34, 57, 9, 0, 24, 0, 0, 0, 0, 0)
s = 99: (0, 0, 87, 44, 8, 0, 24, 0, 0, 0, 0, 0)
s = 100: (0, 0, 51, 44, 5, 0, 22, 0, 0, 0, 0, 0)
s = 101: (0, 0, 39, 30, 6, 0, 23, 0, 0, 0, 0, 0)
s = 102: (0, 0, 66, 39, 6, 0, 22, 0, 0, 0, 0, 0)
s = 103: (0, 0, 33, 69, 6, 0, 20, 0, 0, 0, 0, 0)
s = 104: (0, 0, 32, 29, 6, 0, 26, 0, 0, 0, 0, 0)
s = 105: (0, 0, 34, 49, 8, 0, 18, 0, 0, 0, 0, 0)
s = 106: (0, 0, 65, 53, 5, 0, 23, 0, 0, 0, 0, 0)
s = 107: (0, 0, 41, 36, 6, 0, 30, 0, 0, 0, 0, 0)
s = 108: (0, 0, 60, 48, 7, 0, 24, 0, 0, 0, 0, 0)
s = 109: (0, 0, 76, 42, 8, 0, 28, 0, 0, 0, 0, 0)
s = 110: (0, 0, 37, 36, 4, 0, 24, 0, 0, 0, 0, 0)
s = 111: (0, 0, 36, 50, 7, 0, 23, 0, 0, 0, 0, 0)
s = 112: (0, 0, 66, 39, 7, 0, 22, 0, 0, 0, 0, 0)
s = 113: (0, 0, 46, 66, 9, 0, 42, 0, 0, 0, 0, 0)
s = 114: (0, 0, 41, 51, 5, 0, 14, 0, 0, 0, 0, 0)
s = 115: (0, 0, 65, 38, 4, 0, 26, 0, 0, 0, 0, 0)
s = 116: (0, 0, 78, 65, 7, 0, 21, 0, 0, 0, 0, 0)
s = 117: (0, 0, 47, 54, 8, 0, 21, 0, 0, 0, 0, 0)
s = 118: (0, 0, 39, 55, 10, 0, 16, 0, 0, 0, 0, 0)
s = 119: (0, 0, 32, 59, 6, 0, 28, 0, 0, 0, 0, 0)
s = 120: (0, 0, 41, 51, 6, 0, 29, 0, 0, 0, 0, 0)
s = 121: (0, 0, 33, 38, 6, 0, 18, 0, 0, 0, 0, 0)
s = 122: (0, 0, 63, 40, 7, 0, 31, 0, 0, 0, 0, 0)
s = 123: (0, 0, 58, 51, 8, 0, 14, 0, 0, 0, 0, 0)
s = 124: (0, 0, 53, 30, 8, 0, 15, 0, 0, 0, 0, 0)
s = 125: (0, 0, 37, 42, 6, 0, 28, 0, 0, 0, 0, 0)
s = 126: (0, 0, 34, 44, 5, 0, 26, 0, 0, 0, 0, 0)
s = 127: (0, 0, 36, 43, 5, 0, 26, 0, 0, 0, 0, 0)
s = 128: (0, 0, 42, 51, 9, 0, 22, 0, 0, 0, 0, 0)
s = 129: (0, 0, 36, 49, 7, 0, 18, 0, 0, 0, 0, 0)
s = 130: (0, 0, 33, 48, 8, 0, 28, 0, 0, 0, 0, 0)
s = 131: (0, 0, 58, 72, 9, 0, 16, 0, 0, 0, 0, 0)
s = 132: (0, 0, 52, 69, 4, 0, 20, 0, 0, 0, 0, 0)
s = 133: (0, 0, 53, 67, 4, 0, 28, 0, 0, 0, 0, 0)
s = 134: (0, 0, 53, 51, 6, 0, 19, 0, 0, 0, 0, 0)
s = 135: (0, 0, 50, 43, 9, 0, 33, 0, 0, 0, 0, 0)
s = 136: (0, 0, 41, 36, 4, 0, 16, 0, 0, 0, 0, 0)
s = 137: (0, 0, 28, 31, 4, 0, 21, 0, 0, 0, 0, 0)
s = 138: (0, 0, 47, 35, 5, 0, 15, 0, 0, 0, 0, 0)
s = 139: (0, 0, 48, 54, 6, 0, 35, 0, 0, 0, 0, 0)
s = 140: (0, 0, 42, 48, 9, 0, 25, 0, 0, 0, 0, 0)
s = 141: (0, 0, 66, 78, 7, 0, 18, 0, 0, 0, 0, 0)
s = 142: (0, 0, 39, 68, 4, 0, 32, 0, 0, 0, 0, 0)
s = 143: (0, 0, 27, 76, 6, 0, 21, 0, 0, 0, 0, 0)
s = 144: (0, 0, 42, 30, 6, 0, 18, 0, 0, 0, 0, 0)
s = 145: (0, 0, 50, 58, 4, 0, 18, 0, 0, 0, 0, 0)
s = 146: (0, 0, 38, 45, 8, 0, 24, 0, 0, 0, 0, 0)
s = 147: (0, 0, 64, 36, 5, 0, 36, 0, 0, 0, 0, 0)
s = 148: (0, 0, 45, 42, 8, 0, 23, 0, 0, 0, 0, 0)
s = 149: (0, 0, 37, 48, 5, 0, 28, 0, 0, 0, 0, 0)
s = 150: (0, 0, 29, 50, 6, 0, 27, 0, 0, 0, 0, 0)
s = 151: (0, 0, 63, 26, 5, 0, 23, 0, 0, 0, 0, 0)
s = 152: (0, 0, 49, 26, 4, 0, 20, 0, 0, 0, 0, 0)
s = 153: (0, 0, 51, 44, 5, 0, 35, 0, 0, 0, 0, 0)
s = 154: (0, 0, 37, 53, 6, 0, 23, 0, 0, 0, 0, 0)
s = 155: (0, 0, 79, 49, 6, 0, 17, 0, 0, 0, 0, 0)
s = 156: (0, 0, 45, 48, 6, 0, 22, 0, 0, 0, 0, 0)
s = 157: (0, 0, 48, 53, 6, 0, 25, 0, 0, 0, 0, 0)
s = 158: (0, 0, 39, 28, 6, 0, 27, 0, 0, 0, 0, 0)
s = 159: (0, 0, 39, 68, 8, 0, 20, 0, 0, 0, 0, 0)
s = 160: (0, 0, 36, 51, 4, 0, 30, 0, 0, 0, 0, 0)
s = 161: (0, 0, 72, 40, 7, 0, 23, 0, 0, 0, 0, 0)
s = 162: (0, 0, 78, 63, 6, 0, 18, 0, 0, 0, 0, 0)
s = 163: (0, 0, 76, 32, 9, 0, 25, 0, 0, 0, 0, 0)
s = 164: (0, 0, 48, 48, 6, 0, 19, 0, 0, 0, 0, 0)
s = 165: (0, 0, 49, 38, 4, 0, 18, 0, 0, 0, 0, 0)
s = 166: (0, 0, 39, 54, 6, 0, 24, 0, 0, 0, 0, 0)
s = 167: (0, 0, 28, 51, 4, 0, 33, 0, 0, 0, 0, 0)
s = 168: (0, 0, 71, 64, 4, 0, 44, 0, 0, 0, 0, 0)
s = 169: (0, 0, 57, 56, 9, 0, 23, 0, 0, 0, 0, 0)
s = 170: (0, 0, 49, 46, 6, 0, 23, 0, 0, 0, 0, 0)
s = 171: (0, 0, 47, 32, 8, 0, 21, 0, 0, 0, 0, 0)
s = 172: (0, 0, 28, 31, 5, 0, 19, 0, 0, 0, 0, 0)
s = 173: (0, 0, 38, 36, 9, 0, 20, 0, 0, 0, 0, 0)
s = 174: (0, 0, 64, 61, 5, 0, 23, 0, 0, 0, 0, 0)
s = 175: (0, 0, 46, 44, 4, 0, 25, 0, 0, 0, 0, 0)
s = 176: (0, 0, 59, 58, 4, 0, 17, 0, 0, 0, 0, 0)
s = 177: (0, 0, 32, 74, 7, 0, 29, 0, 0, 0, 0, 0)
s = 178: (0, 0, 36, 47, 7, 0, 33, 0, 0, 0, 0, 0)
s = 179: (0, 0, 52, 62, 8, 0, 17, 0, 0, 0, 0, 0)
s = 180: (0, 0, 33, 36, 4, 0, 16, 0, 0, 0, 0, 0)
s = 181: (0, 0, 38, 85, 7, 0, 15, 0, 0, 0, 0, 0)
s = 182: (0, 0, 62, 37, 6, 0, 18, 0, 0, 0, 0, 0)
s = 183: (0, 0, 37, 65, 6, 0, 34, 0, 0, 0, 0, 0)
s = 184: (0, 0, 47, 58, 7, 0, 18, 0, 0, 0, 0, 0)
s = 185: (0, 0, 45, 75, 10, 0, 26, 0, 0, 0, 0, 0)
s = 186: (0, 0, 46, 34, 12, 0, 20, 0, 0, 0, 0, 0)
s = 187: (0, 0, 39, 35, 8, 0, 22, 0, 0, 0, 0, 0)
s = 188: (0, 0, 32, 43, 6, 0, 45, 0, 0, 0, 0, 0)
s = 189: (0, 0, 30, 59, 4, 0, 20, 0, 0, 0, 0, 0)
s = 190: (0, 0, 62, 75, 4, 0, 20, 0, 0, 0, 0, 0)
s = 191: (0, 0, 30, 39, 5, 0, 31, 0, 0, 0, 0, 0)
s = 192: (0, 0, 52, 62, 8, 0, 22, 0, 0, 0, 0, 0)
s = 193: (0, 0, 34, 38, 8, 0, 23, 0, 0, 0, 0, 0)
s = 194: (0, 0, 57, 49, 8, 0, 30, 0, 0, 0, 0, 0)
s = 195: (0, 0, 59, 45, 5, 0, 25, 0, 0, 0, 0, 0)
s = 196: (0, 0, 66, 61, 6, 0, 23, 0, 0, 0, 0, 0)
s = 197: (0, 0, 32, 59, 7, 0, 30, 0, 0, 0, 0, 0)
s = 198: (0, 0, 61, 63, 6, 0, 27, 0, 0, 0, 0, 0)
s = 199: (0, 0, 62, 39, 7, 0, 24, 0, 0, 0, 0, 0)
s = 200: (0, 0, 47, 71, 9, 0, 18, 0, 0, 0, 0, 0)
************************************************************************
ES/LS-VALUES:
jobnr.   ES(i)    LS(i)
------------------------------------------------------------------------
  0        0        0
  1        0       61
  2        0       40
  3        0       58
  4       14       55
  5       20       61
  6       22       63
  7       29       71
  8       29       73
  9       31       73
 10       22       77
 11       38       81
************************************************************************
BIG-M-VALUES:
M1 = 67, M2 = 236
************************************************************************
